job_count = 20 ;
duration = [|9, 4, 8, 9|30, 20, 16, 5|38, 16, 8, 2|18, 29, 9, 2|23, 5, 18, 9|23, 27, 18, 7|8, 3, 2, 1|23, 24, 9, 1|11, 10, 2, 7|19, 24, 13, 3|33, 8, 8, 8|8, 29, 18, 1|7, 7, 5, 9|4, 3, 19, 3|23, 8, 19, 9|28, 9, 13, 3|38, 12, 19, 4|9, 9, 3, 5|29, 4, 13, 8|22, 7, 18, 6|] ;
machine_count = 4 ;
cost = [|12, 33, 45, 42|11, 34, 32, 58|12, 38, 42, 44|19, 26, 42, 66|13, 33, 55, 68|14, 31, 57, 46|17, 25, 49, 71|15, 21, 59, 62|19, 32, 49, 65|13, 36, 49, 61|10, 24, 53, 50|11, 31, 54, 61|12, 21, 43, 42|11, 20, 44, 63|16, 38, 58, 43|10, 23, 53, 59|18, 35, 59, 59|19, 27, 48, 71|13, 31, 38, 78|14, 35, 58, 59|] ;
deadline = [42, 42, 42, 42, 42, 42, 42, 42, 42, 42, 42, 42, 42, 42, 42, 42, 42, 42, 42, 42] ;
release = [0, 0, 0, 0, 0, 0, 0, 0, 0, 0, 0, 0, 0, 0, 0, 0, 0, 0, 0, 0] ;
resource = [|1, 1, 1, 1|4, 4, 4, 4|6, 6, 6, 6|2, 2, 2, 2|3, 3, 3, 3|4, 4, 4, 4|6, 6, 6, 6|9, 9, 9, 9|1, 1, 1, 1|8, 8, 8, 8|3, 3, 3, 3|1, 1, 1, 1|9, 9, 9, 9|9, 9, 9, 9|7, 7, 7, 7|1, 1, 1, 1|1, 1, 1, 1|3, 3, 3, 3|6, 6, 6, 6|5, 5, 5, 5|] ;
capacities = [10, 10, 10, 10] ;
